c *********************************
c * Circuit generated by BenCGen
c *
c * CarrySkipAdder_32_32_32_InOut_G4T
c *
c * Ports with 1 gate(s): 10
c * Ports with 2 gate(s): 177
c * Ports with 4 gate(s): 8
c * Total gates: 195
c *********************************
p cnf 259 655
1 99 0
-1 -99 0
1 -98 0
99 -98 0
-1 -99 98 0
1 33 -102 0
-1 33 102 0
1 -33 102 0
-1 -33 -102 0
102 98 -65 0
-102 98 65 0
102 -98 65 0
-102 -98 -65 0
98 -103 0
102 -103 0
-98 -102 103 0
33 -104 0
1 -104 0
-33 -1 104 0
-103 101 0
-104 101 0
103 104 -101 0
2 34 -106 0
-2 34 106 0
2 -34 106 0
-2 -34 -106 0
106 101 -66 0
-106 101 66 0
106 -101 66 0
-106 -101 -66 0
101 -107 0
106 -107 0
-101 -106 107 0
34 -108 0
2 -108 0
-34 -2 108 0
-107 105 0
-108 105 0
107 108 -105 0
3 35 -110 0
-3 35 110 0
3 -35 110 0
-3 -35 -110 0
110 105 -67 0
-110 105 67 0
110 -105 67 0
-110 -105 -67 0
105 -111 0
110 -111 0
-105 -110 111 0
35 -112 0
3 -112 0
-35 -3 112 0
-111 109 0
-112 109 0
111 112 -109 0
4 36 -113 0
-4 36 113 0
4 -36 113 0
-4 -36 -113 0
113 109 -68 0
-113 109 68 0
113 -109 68 0
-113 -109 -68 0
109 -114 0
113 -114 0
-109 -113 114 0
36 -115 0
4 -115 0
-36 -4 115 0
-114 100 0
-115 100 0
114 115 -100 0
102 -116 0
106 -116 0
110 -116 0
113 -116 0
-102 -106 -110 -113 116 0
115 -117 0
-115 117 0
98 -118 0
116 -118 0
-98 -116 118 0
-118 119 0
-100 119 0
118 100 -119 0
5 37 -122 0
-5 37 122 0
5 -37 122 0
-5 -37 -122 0
122 119 -69 0
-122 119 69 0
122 -119 69 0
-122 -119 -69 0
119 -123 0
122 -123 0
-119 -122 123 0
37 -124 0
5 -124 0
-37 -5 124 0
-123 121 0
-124 121 0
123 124 -121 0
6 38 -126 0
-6 38 126 0
6 -38 126 0
-6 -38 -126 0
126 121 -70 0
-126 121 70 0
126 -121 70 0
-126 -121 -70 0
121 -127 0
126 -127 0
-121 -126 127 0
38 -128 0
6 -128 0
-38 -6 128 0
-127 125 0
-128 125 0
127 128 -125 0
7 39 -130 0
-7 39 130 0
7 -39 130 0
-7 -39 -130 0
130 125 -71 0
-130 125 71 0
130 -125 71 0
-130 -125 -71 0
125 -131 0
130 -131 0
-125 -130 131 0
39 -132 0
7 -132 0
-39 -7 132 0
-131 129 0
-132 129 0
131 132 -129 0
8 40 -133 0
-8 40 133 0
8 -40 133 0
-8 -40 -133 0
133 129 -72 0
-133 129 72 0
133 -129 72 0
-133 -129 -72 0
129 -134 0
133 -134 0
-129 -133 134 0
40 -135 0
8 -135 0
-40 -8 135 0
-134 120 0
-135 120 0
134 135 -120 0
122 -136 0
126 -136 0
130 -136 0
133 -136 0
-122 -126 -130 -133 136 0
135 -137 0
-135 137 0
119 -138 0
136 -138 0
-119 -136 138 0
-138 139 0
-120 139 0
138 120 -139 0
9 41 -142 0
-9 41 142 0
9 -41 142 0
-9 -41 -142 0
142 139 -73 0
-142 139 73 0
142 -139 73 0
-142 -139 -73 0
139 -143 0
142 -143 0
-139 -142 143 0
41 -144 0
9 -144 0
-41 -9 144 0
-143 141 0
-144 141 0
143 144 -141 0
10 42 -146 0
-10 42 146 0
10 -42 146 0
-10 -42 -146 0
146 141 -74 0
-146 141 74 0
146 -141 74 0
-146 -141 -74 0
141 -147 0
146 -147 0
-141 -146 147 0
42 -148 0
10 -148 0
-42 -10 148 0
-147 145 0
-148 145 0
147 148 -145 0
11 43 -150 0
-11 43 150 0
11 -43 150 0
-11 -43 -150 0
150 145 -75 0
-150 145 75 0
150 -145 75 0
-150 -145 -75 0
145 -151 0
150 -151 0
-145 -150 151 0
43 -152 0
11 -152 0
-43 -11 152 0
-151 149 0
-152 149 0
151 152 -149 0
12 44 -153 0
-12 44 153 0
12 -44 153 0
-12 -44 -153 0
153 149 -76 0
-153 149 76 0
153 -149 76 0
-153 -149 -76 0
149 -154 0
153 -154 0
-149 -153 154 0
44 -155 0
12 -155 0
-44 -12 155 0
-154 140 0
-155 140 0
154 155 -140 0
142 -156 0
146 -156 0
150 -156 0
153 -156 0
-142 -146 -150 -153 156 0
155 -157 0
-155 157 0
139 -158 0
156 -158 0
-139 -156 158 0
-158 159 0
-140 159 0
158 140 -159 0
13 45 -162 0
-13 45 162 0
13 -45 162 0
-13 -45 -162 0
162 159 -77 0
-162 159 77 0
162 -159 77 0
-162 -159 -77 0
159 -163 0
162 -163 0
-159 -162 163 0
45 -164 0
13 -164 0
-45 -13 164 0
-163 161 0
-164 161 0
163 164 -161 0
14 46 -166 0
-14 46 166 0
14 -46 166 0
-14 -46 -166 0
166 161 -78 0
-166 161 78 0
166 -161 78 0
-166 -161 -78 0
161 -167 0
166 -167 0
-161 -166 167 0
46 -168 0
14 -168 0
-46 -14 168 0
-167 165 0
-168 165 0
167 168 -165 0
15 47 -170 0
-15 47 170 0
15 -47 170 0
-15 -47 -170 0
170 165 -79 0
-170 165 79 0
170 -165 79 0
-170 -165 -79 0
165 -171 0
170 -171 0
-165 -170 171 0
47 -172 0
15 -172 0
-47 -15 172 0
-171 169 0
-172 169 0
171 172 -169 0
16 48 -173 0
-16 48 173 0
16 -48 173 0
-16 -48 -173 0
173 169 -80 0
-173 169 80 0
173 -169 80 0
-173 -169 -80 0
169 -174 0
173 -174 0
-169 -173 174 0
48 -175 0
16 -175 0
-48 -16 175 0
-174 160 0
-175 160 0
174 175 -160 0
162 -176 0
166 -176 0
170 -176 0
173 -176 0
-162 -166 -170 -173 176 0
175 -177 0
-175 177 0
159 -178 0
176 -178 0
-159 -176 178 0
-178 179 0
-160 179 0
178 160 -179 0
17 49 -182 0
-17 49 182 0
17 -49 182 0
-17 -49 -182 0
182 179 -81 0
-182 179 81 0
182 -179 81 0
-182 -179 -81 0
179 -183 0
182 -183 0
-179 -182 183 0
49 -184 0
17 -184 0
-49 -17 184 0
-183 181 0
-184 181 0
183 184 -181 0
18 50 -186 0
-18 50 186 0
18 -50 186 0
-18 -50 -186 0
186 181 -82 0
-186 181 82 0
186 -181 82 0
-186 -181 -82 0
181 -187 0
186 -187 0
-181 -186 187 0
50 -188 0
18 -188 0
-50 -18 188 0
-187 185 0
-188 185 0
187 188 -185 0
19 51 -190 0
-19 51 190 0
19 -51 190 0
-19 -51 -190 0
190 185 -83 0
-190 185 83 0
190 -185 83 0
-190 -185 -83 0
185 -191 0
190 -191 0
-185 -190 191 0
51 -192 0
19 -192 0
-51 -19 192 0
-191 189 0
-192 189 0
191 192 -189 0
20 52 -193 0
-20 52 193 0
20 -52 193 0
-20 -52 -193 0
193 189 -84 0
-193 189 84 0
193 -189 84 0
-193 -189 -84 0
189 -194 0
193 -194 0
-189 -193 194 0
52 -195 0
20 -195 0
-52 -20 195 0
-194 180 0
-195 180 0
194 195 -180 0
182 -196 0
186 -196 0
190 -196 0
193 -196 0
-182 -186 -190 -193 196 0
195 -197 0
-195 197 0
179 -198 0
196 -198 0
-179 -196 198 0
-198 199 0
-180 199 0
198 180 -199 0
21 53 -202 0
-21 53 202 0
21 -53 202 0
-21 -53 -202 0
202 199 -85 0
-202 199 85 0
202 -199 85 0
-202 -199 -85 0
199 -203 0
202 -203 0
-199 -202 203 0
53 -204 0
21 -204 0
-53 -21 204 0
-203 201 0
-204 201 0
203 204 -201 0
22 54 -206 0
-22 54 206 0
22 -54 206 0
-22 -54 -206 0
206 201 -86 0
-206 201 86 0
206 -201 86 0
-206 -201 -86 0
201 -207 0
206 -207 0
-201 -206 207 0
54 -208 0
22 -208 0
-54 -22 208 0
-207 205 0
-208 205 0
207 208 -205 0
23 55 -210 0
-23 55 210 0
23 -55 210 0
-23 -55 -210 0
210 205 -87 0
-210 205 87 0
210 -205 87 0
-210 -205 -87 0
205 -211 0
210 -211 0
-205 -210 211 0
55 -212 0
23 -212 0
-55 -23 212 0
-211 209 0
-212 209 0
211 212 -209 0
24 56 -213 0
-24 56 213 0
24 -56 213 0
-24 -56 -213 0
213 209 -88 0
-213 209 88 0
213 -209 88 0
-213 -209 -88 0
209 -214 0
213 -214 0
-209 -213 214 0
56 -215 0
24 -215 0
-56 -24 215 0
-214 200 0
-215 200 0
214 215 -200 0
202 -216 0
206 -216 0
210 -216 0
213 -216 0
-202 -206 -210 -213 216 0
215 -217 0
-215 217 0
199 -218 0
216 -218 0
-199 -216 218 0
-218 219 0
-200 219 0
218 200 -219 0
25 57 -222 0
-25 57 222 0
25 -57 222 0
-25 -57 -222 0
222 219 -89 0
-222 219 89 0
222 -219 89 0
-222 -219 -89 0
219 -223 0
222 -223 0
-219 -222 223 0
57 -224 0
25 -224 0
-57 -25 224 0
-223 221 0
-224 221 0
223 224 -221 0
26 58 -226 0
-26 58 226 0
26 -58 226 0
-26 -58 -226 0
226 221 -90 0
-226 221 90 0
226 -221 90 0
-226 -221 -90 0
221 -227 0
226 -227 0
-221 -226 227 0
58 -228 0
26 -228 0
-58 -26 228 0
-227 225 0
-228 225 0
227 228 -225 0
27 59 -230 0
-27 59 230 0
27 -59 230 0
-27 -59 -230 0
230 225 -91 0
-230 225 91 0
230 -225 91 0
-230 -225 -91 0
225 -231 0
230 -231 0
-225 -230 231 0
59 -232 0
27 -232 0
-59 -27 232 0
-231 229 0
-232 229 0
231 232 -229 0
28 60 -233 0
-28 60 233 0
28 -60 233 0
-28 -60 -233 0
233 229 -92 0
-233 229 92 0
233 -229 92 0
-233 -229 -92 0
229 -234 0
233 -234 0
-229 -233 234 0
60 -235 0
28 -235 0
-60 -28 235 0
-234 220 0
-235 220 0
234 235 -220 0
222 -236 0
226 -236 0
230 -236 0
233 -236 0
-222 -226 -230 -233 236 0
235 -237 0
-235 237 0
219 -238 0
236 -238 0
-219 -236 238 0
-238 239 0
-220 239 0
238 220 -239 0
29 61 -242 0
-29 61 242 0
29 -61 242 0
-29 -61 -242 0
242 239 -93 0
-242 239 93 0
242 -239 93 0
-242 -239 -93 0
239 -243 0
242 -243 0
-239 -242 243 0
61 -244 0
29 -244 0
-61 -29 244 0
-243 241 0
-244 241 0
243 244 -241 0
30 62 -246 0
-30 62 246 0
30 -62 246 0
-30 -62 -246 0
246 241 -94 0
-246 241 94 0
246 -241 94 0
-246 -241 -94 0
241 -247 0
246 -247 0
-241 -246 247 0
62 -248 0
30 -248 0
-62 -30 248 0
-247 245 0
-248 245 0
247 248 -245 0
31 63 -250 0
-31 63 250 0
31 -63 250 0
-31 -63 -250 0
250 245 -95 0
-250 245 95 0
250 -245 95 0
-250 -245 -95 0
245 -251 0
250 -251 0
-245 -250 251 0
63 -252 0
31 -252 0
-63 -31 252 0
-251 249 0
-252 249 0
251 252 -249 0
32 64 -253 0
-32 64 253 0
32 -64 253 0
-32 -64 -253 0
253 249 -96 0
-253 249 96 0
253 -249 96 0
-253 -249 -96 0
249 -254 0
253 -254 0
-249 -253 254 0
64 -255 0
32 -255 0
-64 -32 255 0
-254 240 0
-255 240 0
254 255 -240 0
242 -256 0
246 -256 0
250 -256 0
253 -256 0
-242 -246 -250 -253 256 0
255 -257 0
-255 257 0
239 -258 0
256 -258 0
-239 -256 258 0
-258 259 0
-240 259 0
258 240 -259 0
259 -97 0
-259 97 0
